model/nondet/good_0_0_0_c.smt2.output
At line 53: syntax error, unexpected ')'
